GLPSOL--GLPK LP/MIP Solver 5.0
Parameter(s) specified in the command line:
 --lp ../modeles/15_354.lp --log 15_354.log
Reading problem data from '../modeles/15_354.lp'...
5371 rows, 10650 columns, 37215 non-zeros
5310 integer variables, all of which are binary
16042 lines were read
GLPK Integer Optimizer 5.0
5371 rows, 10650 columns, 37215 non-zeros
5310 integer variables, all of which are binary
Preprocessing...
5250 constraint coefficient(s) were reduced
5371 rows, 10635 columns, 37200 non-zeros
5310 integer variables, all of which are binary
Scaling...
 A: min|aij| =  1.277e-04  max|aij| =  4.000e+00  ratio =  3.133e+04
GM: min|aij| =  7.516e-02  max|aij| =  1.330e+01  ratio =  1.770e+02
EQ: min|aij| =  5.650e-03  max|aij| =  1.000e+00  ratio =  1.770e+02
2N: min|aij| =  3.906e-03  max|aij| =  1.771e+00  ratio =  4.534e+02
Constructing initial basis...
Size of triangular part is 5371
Solving LP relaxation...
GLPK Simplex Optimizer 5.0
5371 rows, 10635 columns, 37200 non-zeros
      0: obj =   3.000000000e+01 inf =   7.450e+01 (31)
Perturbing LP to avoid stalling [199]...
    314: obj =   2.476258120e-01 inf =   0.000e+00 (0)
Removing LP perturbation [1070]...
*  1070: obj =  -3.872504708e+00 inf =   0.000e+00 (0) 1
OPTIMAL LP SOLUTION FOUND
Integer optimization begins...
Long-step dual simplex will be used
+  1070: mip =     not found yet >=              -inf        (1; 0)
+  1296: >>>>>  -3.872504708e+00 >=  -3.872504708e+00   0.0% (225; 0)
+  1296: mip =  -3.872504708e+00 >=     tree is empty   0.0% (0; 449)
INTEGER OPTIMAL SOLUTION FOUND
Time used:   3.3 secs
Memory used: 15.4 Mb (16144947 bytes)
